GLPSOL--GLPK LP/MIP Solver 5.0
Parameter(s) specified in the command line:
 --lp ../modeles/10_89.lp --log 10_89.log
Reading problem data from '../modeles/10_89.lp'...
931 rows, 1800 columns, 6280 non-zeros
890 integer variables, all of which are binary
2747 lines were read
GLPK Integer Optimizer 5.0
931 rows, 1800 columns, 6280 non-zeros
890 integer variables, all of which are binary
Preprocessing...
900 constraint coefficient(s) were reduced
931 rows, 1790 columns, 6270 non-zeros
890 integer variables, all of which are binary
Scaling...
 A: min|aij| =  5.050e-04  max|aij| =  4.000e+00  ratio =  7.921e+03
GM: min|aij| =  1.060e-01  max|aij| =  9.434e+00  ratio =  8.900e+01
EQ: min|aij| =  1.124e-02  max|aij| =  1.000e+00  ratio =  8.900e+01
2N: min|aij| =  7.812e-03  max|aij| =  1.765e+00  ratio =  2.259e+02
Constructing initial basis...
Size of triangular part is 931
Solving LP relaxation...
GLPK Simplex Optimizer 5.0
931 rows, 1790 columns, 6270 non-zeros
      0: obj =   2.000000000e+01 inf =   4.950e+01 (21)
     89: obj =   4.975378788e-01 inf =   0.000e+00 (0)
*   387: obj =  -3.154293740e+00 inf =   3.777e-15 (0)
OPTIMAL LP SOLUTION FOUND
Integer optimization begins...
Long-step dual simplex will be used
+   387: mip =     not found yet >=              -inf        (1; 0)
+   446: >>>>>  -3.154293740e+00 >=  -3.154293740e+00 < 0.1% (56; 0)
+   446: mip =  -3.154293740e+00 >=     tree is empty   0.0% (0; 111)
INTEGER OPTIMAL SOLUTION FOUND
Time used:   0.1 secs
Memory used: 2.7 Mb (2803240 bytes)
